Version identifier: 12.10.0.0 | 2019-11-26 | 843d4de
CPXPARAM_WorkMem                                 28672
Tried aggregator 2 times.
Aggregator did 75 substitutions.
Reduced MIP has 319 rows, 360 columns, and 1480 nonzeros.
Reduced MIP has 360 binaries, 0 generals, 0 SOSs, and 0 indicators.
Presolve time = 0,00 sec. (1,44 ticks)
Found incumbent of value 300,000000 after 0,00 sec. (2,23 ticks)
Probing time = 0,00 sec. (0,72 ticks)
Tried aggregator 1 time.
Detecting symmetries...
MIP Presolve eliminated 68 rows and 0 columns.
MIP Presolve added 136 rows and 0 columns.
Reduced MIP has 387 rows, 360 columns, and 1548 nonzeros.
Reduced MIP has 360 binaries, 0 generals, 0 SOSs, and 0 indicators.
Presolve time = 0,00 sec. (1,99 ticks)
Probing time = 0,00 sec. (0,70 ticks)
Clique table members: 1075.
MIP emphasis: balance optimality and feasibility.
MIP search method: dynamic search.
Parallel mode: deterministic, using up to 16 threads.
Root relaxation solution time = 0,00 sec. (1,83 ticks)

        Nodes                                         Cuts/
   Node  Left     Objective  IInf  Best Integer    Best Bound    ItCnt     Gap

*     0+    0                          300,0000        0,0000           100,00%
*     0+    0                          173,0000        0,0000           100,00%
*     0+    0                          170,0000        0,0000           100,00%
*     0+    0                          162,0000        0,0000           100,00%
      0     0       75,0000   264      162,0000       75,0000      139   53,70%
      0     0       75,6809   264      162,0000     Cuts: 196      243   53,28%
      0     0       76,9665   264      162,0000     Cuts: 180      322   52,49%
      0     0       77,5439   264      162,0000      Cuts: 65      350   52,13%
      0     0       77,7457   264      162,0000      Cuts: 87      380   52,01%
      0     0       77,9065   264      162,0000     Cuts: 112      426   51,91%
      0     0       93,6067   264      162,0000     Cuts: 196      712   42,22%
      0     0       94,3673   264      162,0000     Cuts: 196      814   41,75%
*     0+    0                          156,0000       94,3673            39,51%
      0     0       94,8272   264      156,0000     Cuts: 169      864   36,94%
      0     0       95,1988   264      156,0000     Cuts: 110      918   36,94%
      0     0       95,3397   264      156,0000      Cuts: 31      932   36,94%
      0     0       95,3996   264      156,0000   ZeroHalf: 2      949   36,94%
      0     2       95,3996   330      156,0000       98,3750      949   36,94%
Elapsed time = 0,23 sec. (162,16 ticks, tree = 0,02 MB, solutions = 5)
   2485  1502      150,7552   103      156,0000      134,9756    88697   13,48%
   5249  2300        cutoff            156,0000      142,9485   192216    8,37%

Performing restart 1

Repeating presolve.
Tried aggregator 2 times.
MIP Presolve eliminated 60 rows and 30 columns.
MIP Presolve added 42 rows and 0 columns.
MIP Presolve modified 66 coefficients.
Aggregator did 9 substitutions.
Reduced MIP has 360 rows, 321 columns, and 1327 nonzeros.
Reduced MIP has 321 binaries, 0 generals, 0 SOSs, and 0 indicators.
Presolve time = 0,00 sec. (1,98 ticks)
Tried aggregator 1 time.
Reduced MIP has 360 rows, 321 columns, and 1327 nonzeros.
Reduced MIP has 321 binaries, 0 generals, 0 SOSs, and 0 indicators.
Presolve time = 0,00 sec. (1,12 ticks)
Represolve time = 0,02 sec. (12,65 ticks)
   6445     0       95,8442   320      156,0000       Cuts: 9   263554    6,09%
   6445     0       96,3393   320      156,0000       Cuts: 8   263596    6,09%
   6445     0       96,9356   320      156,0000       Cuts: 5   263662    6,09%
   6445     0       97,3406   320      156,0000      Cuts: 14   263707    6,09%
   6445     2       97,3406   320      156,0000      146,4990   263707    6,09%
   6547    35      120,7846   200      156,0000      146,4990   267505    6,09%
   8923  1442      151,7167    96      156,0000      146,4990   337731    6,09%
  11665  4008      138,4363   231      156,0000      146,4990   433849    6,09%
  13888  5354      154,9444    84      156,0000      146,4990   506581    6,09%

Performing restart 2

Repeating presolve.
Tried aggregator 1 time.
MIP Presolve eliminated 6 rows and 3 columns.
Reduced MIP has 354 rows, 318 columns, and 1315 nonzeros.
Reduced MIP has 318 binaries, 0 generals, 0 SOSs, and 0 indicators.
Presolve time = 0,00 sec. (1,40 ticks)
Tried aggregator 1 time.
Reduced MIP has 354 rows, 318 columns, and 1315 nonzeros.
Reduced MIP has 318 binaries, 0 generals, 0 SOSs, and 0 indicators.
Presolve time = 0,00 sec. (1,11 ticks)
Represolve time = 0,02 sec. (19,38 ticks)
  14644     0       99,0895   318      156,0000      Cuts: 16   571381    6,09%
  14644     0       99,7322   318      156,0000      Cuts: 11   571457    6,09%
  14644     0      100,1905   318      156,0000      Cuts: 14   571553    6,09%
  14644     0      100,5340   318      156,0000       Cuts: 7   571615    6,09%
  14644     0      101,0147   318      156,0000      Cuts: 12   571684    6,09%
  14644     0      101,3500   318      156,0000       Cuts: 8   571798    6,09%
  14644     0      101,6204   318      156,0000       Cuts: 8   571900    6,09%
  14644     2      101,6204   318      156,0000      146,4990   571900    6,09%
  17898  2002      139,3691   138      156,0000      146,4990   625273    6,09%

Clique cuts applied:  23
Cover cuts applied:  472
Mixed integer rounding cuts applied:  66
Zero-half cuts applied:  8
Lift and project cuts applied:  1
Gomory fractional cuts applied:  61

Root node processing (before b&c):
  Real time             =    0,23 sec. (161,79 ticks)
Parallel b&c, 16 threads:
  Real time             =    4,31 sec. (3511,94 ticks)
  Sync time (average)   =    1,15 sec.
  Wait time (average)   =    0,01 sec.
                          ------------
Total (root+branch&cut) =    4,54 sec. (3673,73 ticks)
